8 196
33 174
72 55
33 70
50 1
23 1
30 36
9 167
44 79
100 8
37 9
11 127
29 150
25 3
48 58
70 2
17 90
32 7
4 108
21 57
22 115
18 41
44 19
6 125
6 29
6 151
1 30
94 35
8 163
19 91
27 125
1 1
5 156
87 42
89 4
2 127
20 68
92 63
34 125
16 194
7 5
30 32
19 87
27 59
86 12
41 57
1 44
27 113
25 107
1 128
10 38
71 6
13 145
45 73
36 43
96 10
75 6
68 36
38 126
1 187
33 127
34 47
42 114
12 153
19 28
73 11
21 121
21 171
8 10
32 91
63 52
20 179
5 189
31 126
50 48
1 192
16 168
57 71
83 57
45 12
48 81
12 199
33 7
10 133
74 20
95 11
21 76
11 71
56 35
33 73
87 13
17 171
19 200
61 53
10 166
36 116
12 111
39 69
4 30
29 114
